; benchmark generated from python API
(set-info :status unknown)
(declare-datatypes ((RealState 0)) (((RMk1 (rval1 Real)) (RMk2 (rval2 Real)))))
 (assert
 (forall ((|v17:0| Real) )(forall ((|v16:1| Real) )(forall ((|v15:2| Real) )(forall ((|v14:3| Real) )(forall ((|v13:4| Real) )(forall ((|v12:5| Real) )(exists ((|v11:6_st| RealState) (val!10020 Real) )(exists ((|v10:7_st| RealState) (val!10021 Real) )(exists ((|v9:8_st| RealState) (val!10022 Real) )(exists ((|v8:9_st| RealState) (val!10023 Real) )(exists ((|v7:10_st| RealState) (val!10024 Real) )(exists ((|v6:11_st| RealState) (val!10025 Real) )(forall ((|v5:12| Real) )(forall ((|v4:13| Real) )(forall ((|v3:14| Real) )(forall ((|v2:15| Real) )(forall ((|v1:16| Real) )(forall ((|v0:17| Real) )(let ((?x764 (* 3.0 |v13:4|)))
 (let ((?x4383 (rval2 |v6:11_st|)))
 (let ((?x8912 (* 6.0 |v2:15|)))
 (let ((?x7358 (rval2 |v9:8_st|)))
 (let ((?x3558 (- 8.0)))
 (let ((?x4571 (* ?x3558 ?x7358)))
 (let ((?x5470 (rval2 |v7:10_st|)))
 (let ((?x2271 (- 11.0)))
 (let ((?x4804 (* ?x2271 ?x5470)))
 (let ((?x1496 (+ (+ (+ (+ (+ (* (- 15.0) |v17:0|) (* 12.0 ?x5470)) ?x4804) ?x4571) ?x8912) ?x4383)))
 (let ((?x9308 (- 1.0)))
 (let ((?x4173 (* 2.0 |v15:2|)))
 (let ((?x5967 (- 10.0)))
 (let ((?x4851 (* ?x5967 |v14:3|)))
 (let ((?x5786 (- 18.0)))
 (let ((?x8348 (* ?x5786 |v13:4|)))
 (let ((?x2313 (+ (+ (+ (* (- 5.0) ?x7358) (* (- 2.0) ?x5470)) (* 14.0 ?x4383)) (* 4.0 |v14:3|))))
 (let (($x8950 (and (<= (+ (+ (+ ?x2313 ?x8348) ?x4851) ?x4173) ?x9308) (<= (+ ?x1496 ?x764) 11.0))))
 (let ((?x5828 (rval2 |v11:6_st|)))
 (let ((?x6608 (* 4.0 ?x5828)))
 (let ((?x8539 (* ?x5786 |v4:13|)))
 (let ((?x3237 (- 14.0)))
 (let ((?x8703 (* ?x3237 ?x5828)))
 (let ((?x4299 (* 2.0 |v14:3|)))
 (let ((?x3704 (rval2 |v10:7_st|)))
 (let ((?x7925 (- 3.0)))
 (let ((?x4638 (* ?x7925 ?x3704)))
 (let ((?x9443 (+ (+ (+ (+ (* (- 4.0) ?x3704) (* (- 5.0) ?x4383)) ?x4638) ?x4299) ?x8703)))
 (let ((?x9061 (* 19.0 |v12:5|)))
 (let ((?x3684 (- 12.0)))
 (let ((?x4921 (* ?x3684 ?x7358)))
 (let ((?x9214 (rval2 |v8:9_st|)))
 (let ((?x532 (* 0.0 ?x9214)))
 (let ((?x3216 (* 6.0 |v15:2|)))
 (let ((?x5172 (+ (+ (+ (+ (* (- 13.0) ?x9214) (* ?x7925 |v15:2|)) (* ?x3558 ?x5470)) ?x3216) ?x532)))
 (let (($x2153 (or (<= (+ (+ ?x5172 ?x4921) ?x9061) 14.0) (<= (+ (+ ?x9443 ?x8539) ?x6608) ?x2271))))
 (let ((?x4061 (* 14.0 |v15:2|)))
 (let ((?x3096 (* 17.0 |v13:4|)))
 (let ((?x4568 (* ?x3237 ?x3704)))
 (let ((?x2881 (* 8.0 |v2:15|)))
 (let ((?x574 (+ (+ (+ (+ (* ?x5967 ?x9214) (* 3.0 |v0:17|)) (* (- 4.0) |v1:16|)) ?x2881) ?x4568)))
 (let ((?x8575 (* ?x9308 ?x4383)))
 (let ((?x3589 (* 17.0 ?x4383)))
 (let ((?x1125 (* 14.0 ?x9214)))
 (let ((?x1518 (+ (+ (+ (+ (+ (* 6.0 ?x9214) ?x4173) |v15:2|) (* 9.0 |v5:12|)) ?x1125) ?x3589)))
 (let ((?x5274 (* 0.0 |v4:13|)))
 (let ((?x577 (* 5.0 ?x9214)))
 (let ((?x1803 (* 3.0 |v17:0|)))
 (let ((?x1497 (+ (+ (+ (+ (* 18.0 ?x5470) (* 10.0 |v17:0|)) (* ?x3237 |v14:3|)) ?x1803) (* (- 13.0) |v14:3|))))
 (let ((?x9046 (- 19.0)))
 (let ((?x6005 (* 9.0 |v15:2|)))
 (let ((?x1664 (* ?x5967 |v2:15|)))
 (let ((?x4592 (- 4.0)))
 (let ((?x7965 (* ?x4592 |v2:15|)))
 (let ((?x8306 (* 13.0 ?x4383)))
 (let ((?x203 (+ (+ (+ (+ (* ?x5967 ?x3704) (* ?x3558 ?x9214)) (* 19.0 |v16:1|)) ?x8306) ?x7965)))
 (let (($x5777 (or (<= (+ (+ ?x203 ?x1664) ?x6005) ?x9046) (<= (+ (+ ?x1497 ?x577) ?x5274) 13.0))))
 (let (($x4076 (and $x5777 (and (<= (+ ?x1518 ?x8575) 2.0) (<= (+ (+ ?x574 ?x3096) ?x4061) 11.0)))))
 (let ((?x205 (* 11.0 |v14:3|)))
 (let ((?x1089 (* 3.0 |v5:12|)))
 (let ((?x9422 (+ (+ (+ (* 14.0 ?x7358) (* (- 2.0) ?x5470)) (* (- 16.0) |v4:13|)) (* (- 9.0) |v15:2|))))
 (let ((?x7166 (* 19.0 ?x5470)))
 (let ((?x8804 (* 17.0 ?x3704)))
 (let ((?x4906 (* 20.0 |v12:5|)))
 (let ((?x6527 (+ (+ (+ (+ (* 20.0 |v17:0|) (* 0.0 |v1:16|)) (* 7.0 |v0:17|)) ?x4906) ?x8804)))
 (let ((?x4008 (* 13.0 |v3:14|)))
 (let ((?x6250 (* 8.0 |v3:14|)))
 (let ((?x5395 (* 14.0 |v3:14|)))
 (let ((?x6262 (+ (+ (+ (* (- 9.0) |v5:12|) (* 20.0 ?x4383)) (* 19.0 |v17:0|)) ?x1125)))
 (let (($x4043 (or (<= (+ (+ (+ ?x6262 ?x5395) ?x6250) ?x4008) ?x2271) (<= (+ (+ ?x6527 ?x7166) (* 15.0 |v12:5|)) 5.0))))
 (let ((?x3759 (* 12.0 ?x5828)))
 (let ((?x1687 (- 5.0)))
 (let ((?x2379 (* ?x1687 |v5:12|)))
 (let ((?x8346 (* 6.0 |v3:14|)))
 (let ((?x1003 (+ (+ (+ (+ (* 6.0 |v12:5|) ?x2881) (* 20.0 |v15:2|)) (* ?x7925 |v12:5|)) ?x8346)))
 (let ((?x2395 (* ?x7925 |v2:15|)))
 (let ((?x7878 (- 13.0)))
 (let ((?x826 (* ?x7878 ?x5470)))
 (let ((?x8752 (* 9.0 |v3:14|)))
 (let ((?x5546 (+ (+ (+ (+ (* 13.0 |v0:17|) (* 7.0 ?x3704)) ?x8575) (* ?x3558 ?x3704)) ?x8752)))
 (let (($x6463 (and (<= (+ (+ ?x5546 ?x826) ?x2395) ?x3684) (<= (+ (+ ?x1003 ?x2379) ?x3759) 14.0))))
 (let (($x6937 (or (and (or $x6463 $x4043) (<= (+ (+ (+ ?x9422 ?x1089) ?x6005) ?x205) 5.0)) (and $x4076 (or $x2153 $x8950)))))
 (let ((?x2498 (* ?x9308 |v2:15|)))
 (let ((?x766 (* ?x3558 |v3:14|)))
 (let ((?x8875 (+ (+ (+ (* 9.0 |v16:1|) (* (- 2.0) |v2:15|)) (* (- 9.0) |v12:5|)) ?x766)))
 (let ((?x5641 (* 7.0 ?x3704)))
 (let ((?x8790 (* 12.0 |v13:4|)))
 (let ((?x3991 (* 9.0 ?x5470)))
 (let ((?x3129 (+ (+ (+ (+ (* (- 15.0) |v1:16|) (* 20.0 |v0:17|)) (* ?x1687 ?x4383)) ?x3991) ?x8790)))
 (let (($x8822 (and (<= (+ (+ ?x3129 ?x5641) (* (- 6.0) |v15:2|)) 10.0) (<= (+ (+ (+ ?x8875 (* ?x2271 ?x4383)) ?x2498) (* ?x7925 |v16:1|)) ?x7878))))
 (let ((?x3159 (* ?x7878 |v2:15|)))
 (let ((?x4784 (* 8.0 |v0:17|)))
 (let ((?x6162 (* 3.0 ?x5828)))
 (let ((?x4416 (* ?x4592 |v5:12|)))
 (let ((?x6051 (+ (+ (+ (+ (* 16.0 |v2:15|) (* ?x1687 |v2:15|)) (* 18.0 ?x3704)) ?x4416) ?x6162)))
 (let ((?x1195 (* 11.0 ?x5470)))
 (let ((?x3474 (* ?x5786 |v2:15|)))
 (let ((?x7977 (+ (+ (+ (* (- 15.0) ?x4383) (* 20.0 |v15:2|)) (* 16.0 |v15:2|)) ?x2881)))
 (let ((?x336 (* 6.0 |v12:5|)))
 (let ((?x1613 (* 0.0 ?x3704)))
 (let ((?x5263 (* 18.0 |v13:4|)))
 (let ((?x6416 (* 18.0 |v1:16|)))
 (let ((?x6020 (+ (+ (+ (+ (+ |v12:5| (* (- 17.0) |v14:3|)) (* 9.0 |v1:16|)) ?x6416) ?x5263) ?x1613)))
 (let ((?x1493 (* 14.0 |v13:4|)))
 (let ((?x7670 (* 10.0 |v2:15|)))
 (let ((?x2494 (* ?x5967 |v3:14|)))
 (let ((?x8469 (+ (+ (+ (+ (* (- 2.0) |v14:3|) ?x9214) (* 18.0 ?x5470)) (* ?x3558 ?x3704)) ?x2494)))
 (let (($x7047 (and (and (<= (+ (+ ?x8469 ?x7670) ?x1493) ?x9046) (<= (+ ?x6020 ?x336) 11.0)) (<= (+ (+ (+ ?x7977 ?x3474) ?x8346) ?x1195) 10.0))))
 (let ((?x3384 (* 4.0 ?x3704)))
 (let ((?x1586 (+ (+ (+ (* (- 15.0) ?x9214) (* ?x9308 ?x5470)) (* 3.0 |v15:2|)) (* (- 7.0) ?x7358))))
 (let (($x7499 (<= (+ (+ (+ ?x1586 ?x3384) (* (- 20.0) ?x3704)) (* (- 16.0) |v13:4|)) 0.0)))
 (let (($x3682 (and (and $x7499 (and $x7047 (or (<= (+ (+ ?x6051 ?x4784) ?x3159) ?x5967) $x8822))) $x6937)))
 (let ((?x1927 (- 16.0)))
 (let ((?x6543 (* ?x1927 |v1:16|)))
 (let ((?x3355 (* 8.0 |v12:5|)))
 (let ((?x4433 (* 11.0 ?x9214)))
 (let ((?x467 (+ (+ (+ (+ (* 9.0 |v16:1|) (* ?x9046 |v5:12|)) (* 15.0 |v0:17|)) ?x4433) ?x3355)))
 (let ((?x3667 (* 5.0 ?x7358)))
 (let ((?x7916 (* 10.0 |v1:16|)))
 (let ((?x914 (* ?x5967 ?x4383)))
 (let ((?x1729 (+ (+ (+ (+ (* 13.0 |v1:16|) ?x3991) (* 15.0 |v1:16|)) (* 10.0 |v4:13|)) ?x914)))
 (let ((?x4232 (- 15.0)))
 (let ((?x5552 (* ?x4232 |v5:12|)))
 (let ((?x7122 (- 17.0)))
 (let ((?x7618 (* ?x7122 ?x3704)))
 (let ((?x1748 (+ (+ (+ (+ (+ ?x5828 (* 9.0 |v14:3|)) (* 14.0 |v12:5|)) ?x7618) ?x5552) (* 16.0 ?x5470))))
 (let (($x9037 (and (<= (+ ?x1748 (* ?x9046 ?x7358)) ?x9046) (<= (+ (+ ?x1729 ?x7916) ?x3667) 1.0))))
 (let ((?x7919 (- 2.0)))
 (let ((?x7455 (* 7.0 |v0:17|)))
 (let ((?x212 (- 20.0)))
 (let ((?x3016 (* ?x212 |v0:17|)))
 (let ((?x3104 (+ (+ (+ (* 8.0 |v5:12|) (* ?x4592 ?x5828)) (* 15.0 |v2:15|)) (* 4.0 |v12:5|))))
 (let ((?x8869 (* 10.0 ?x4383)))
 (let ((?x4362 (* ?x1687 |v4:13|)))
 (let ((?x283 (+ (+ (+ (+ (* 16.0 |v4:13|) (* ?x7919 |v2:15|)) (* ?x212 ?x4383)) ?x4362) ?x205)))
 (let (($x5034 (or (<= (+ (+ ?x283 (* ?x212 |v17:0|)) ?x8869) ?x7919) (<= (+ (+ (+ ?x3104 ?x3016) ?x8703) ?x7455) ?x7919))))
 (let ((?x4391 (* 10.0 ?x5828)))
 (let ((?x204 (* ?x212 ?x5828)))
 (let ((?x943 (+ (+ (+ (+ ?x4568 (* 2.0 |v0:17|)) (* ?x7919 |v2:15|)) (* ?x3558 ?x5470)) (* ?x3237 ?x9214))))
 (let ((?x4035 (* 20.0 |v15:2|)))
 (let ((?x5250 (* 19.0 ?x7358)))
 (let ((?x2885 (+ (+ (+ (* ?x5786 ?x5828) (* 20.0 ?x7358)) (* (- 7.0) |v14:3|)) (* ?x5786 |v16:1|))))
 (let (($x6361 (and (<= (+ (+ (+ ?x2885 (* ?x212 |v15:2|)) ?x5250) ?x4035) 3.0) (<= (+ (+ ?x943 ?x204) ?x4391) ?x4592))))
 (let ((?x2249 (- 7.0)))
 (let ((?x1000 (* 8.0 |v1:16|)))
 (let ((?x3616 (* 14.0 ?x7358)))
 (let ((?x8246 (+ (+ (+ (+ (+ (* ?x3558 |v2:15|) (* ?x7919 |v0:17|)) ?x3016) ?x577) ?x3616) ?x1000)))
 (let ((?x3909 (* ?x3237 ?x4383)))
 (let ((?x8340 (* ?x7122 |v0:17|)))
 (let ((?x1207 (+ (+ (+ (+ (* ?x212 |v1:16|) (* ?x4592 |v3:14|)) (* 14.0 ?x5828)) ?x4906) ?x8340)))
 (let (($x7752 (and (<= (+ (+ ?x1207 ?x3909) ?x4906) ?x7878) (<= (+ ?x8246 (* 8.0 |v14:3|)) ?x2249))))
 (let ((?x364 (* 20.0 |v3:14|)))
 (let ((?x1539 (+ (+ (+ (+ (+ ?x4921 (* ?x7925 |v15:2|)) (* ?x3237 |v2:15|)) ?x4804) ?x364) |v1:16|)))
 (let ((?x2859 (* 9.0 |v16:1|)))
 (let ((?x4292 (* 9.0 |v17:0|)))
 (let ((?x1847 (+ (+ (+ (+ (* ?x3237 |v4:13|) ?x1664) (* 10.0 ?x7358)) (* ?x7122 |v16:1|)) ?x577)))
 (let (($x1947 (and (<= (+ (+ ?x1847 ?x4292) ?x2859) ?x7925) (<= (+ ?x1539 (* ?x3237 |v12:5|)) ?x212))))
 (let ((?x8391 (* ?x2249 |v14:3|)))
 (let ((?x1347 (+ (+ (+ (+ (* 4.0 ?x5470) (* 7.0 ?x4383)) (* 8.0 |v17:0|)) ?x8391) ?x4008)))
 (let ((?x6141 (* 8.0 ?x5470)))
 (let ((?x8164 (* 15.0 ?x5828)))
 (let ((?x2222 (* 16.0 |v14:3|)))
 (let ((?x1233 (* ?x4232 |v15:2|)))
 (let ((?x8870 (+ (+ (+ (+ (* ?x1687 |v17:0|) (* 15.0 |v0:17|)) (* 12.0 |v17:0|)) ?x1233) ?x2222)))
 (let (($x7735 (or (<= (+ (+ ?x8870 ?x8164) ?x6141) ?x212) (<= (+ (+ ?x1347 ?x4784) ?x3667) ?x5786))))
 (let ((?x939 (* ?x9046 |v4:13|)))
 (let ((?x5161 (* 13.0 |v17:0|)))
 (let ((?x9040 (+ (+ (+ (+ (* 17.0 |v4:13|) (* ?x9046 |v15:2|)) ?x5250) (* 11.0 |v2:15|)) (* ?x1927 |v17:0|))))
 (let ((?x6413 (* ?x2249 ?x3704)))
 (let ((?x2858 (* 2.0 |v17:0|)))
 (let ((?x6634 (* 3.0 |v0:17|)))
 (let ((?x8709 (+ (+ (+ (* ?x7122 |v3:14|) (* ?x3237 |v2:15|)) (* 11.0 |v3:14|)) ?x6634)))
 (let (($x5167 (and (<= (+ (+ (+ ?x8709 ?x2858) ?x4638) ?x6413) 15.0) (<= (+ (+ ?x9040 ?x5161) ?x939) 16.0))))
 (let ((?x5077 (* 9.0 |v4:13|)))
 (let ((?x4137 (+ (+ (+ (+ (+ ?x4173 ?x4851) (* 11.0 |v16:1|)) (* 11.0 ?x4383)) ?x5077) (* (- 6.0) |v16:1|))))
 (let ((?x7832 (* 17.0 ?x7358)))
 (let ((?x6387 (* ?x3558 |v1:16|)))
 (let ((?x8149 (+ (+ (+ (* 15.0 |v13:4|) (* 15.0 ?x4383)) (* 18.0 ?x5470)) (* ?x7925 |v13:4|))))
 (let (($x4300 (and (<= (+ (+ (+ ?x8149 ?x6387) ?x7916) ?x7832) ?x1687) (<= (+ ?x4137 ?x3384) ?x4232))))
 (let (($x3102 (and (or (or $x4300 $x5167) (or $x7735 $x1947)) (and (and $x7752 $x6361) (and $x5034 $x9037)))))
 (let ((?x8038 (* 19.0 ?x5828)))
 (let ((?x7542 (* 15.0 |v15:2|)))
 (let ((?x8014 (* 4.0 ?x4383)))
 (let ((?x4013 (+ (+ (+ (+ (* ?x7925 |v12:5|) ?x7916) (* 18.0 |v4:13|)) (* ?x5786 |v3:14|)) ?x8014)))
 (let ((?x6409 (* ?x9046 |v3:14|)))
 (let ((?x3017 (* ?x7122 |v5:12|)))
 (let ((?x6555 (* ?x1927 ?x5828)))
 (let ((?x8731 (+ (+ (+ (+ (* (- 9.0) ?x3704) ?x1664) (* (- 6.0) ?x7358)) ?x6555) ?x3017)))
 (let ((?x4418 (* 7.0 ?x4383)))
 (let ((?x6271 (* 19.0 |v2:15|)))
 (let ((?x6246 (+ (+ (+ (+ (* 16.0 ?x4383) (* 10.0 |v14:3|)) (* 18.0 |v2:15|)) ?x6271) ?x6413)))
 (let (($x2423 (or (<= (+ (+ ?x6246 (* 10.0 ?x5470)) ?x4418) 8.0) (<= (+ (+ ?x8731 (* ?x7919 |v17:0|)) ?x6409) ?x7919))))
 (let ((?x7349 (* ?x7122 |v14:3|)))
 (let ((?x8794 (* 4.0 |v1:16|)))
 (let ((?x8679 (+ (+ (+ (+ ?x8340 (* ?x7925 |v0:17|)) ?x3589) (* ?x3684 |v0:17|)) (* ?x1687 |v12:5|))))
 (let ((?x248 (* ?x7878 |v13:4|)))
 (let ((?x7662 (* 0.0 |v2:15|)))
 (let ((?x9447 (+ (+ (+ (* ?x5786 |v17:0|) (* ?x5786 |v5:12|)) (* 4.0 |v16:1|)) (* 5.0 |v13:4|))))
 (let (($x6548 (or (<= (+ (+ (+ ?x9447 ?x7662) ?x248) (* ?x3237 ?x7358)) 16.0) (<= (+ (+ ?x8679 ?x8794) ?x7349) ?x3684))))
 (let ((?x4052 (* 20.0 |v0:17|)))
 (let ((?x3735 (* 13.0 |v15:2|)))
 (let ((?x35 (* ?x5786 |v1:16|)))
 (let ((?x8637 (+ (+ (+ (+ (* 15.0 ?x4383) (* 19.0 |v16:1|)) (* ?x3684 |v13:4|)) ?x35) (* 16.0 |v13:4|))))
 (let ((?x32 (* 4.0 |v5:12|)))
 (let ((?x8654 (+ (+ (+ (+ (* 15.0 |v17:0|) (* 18.0 ?x7358)) ?x4571) (* ?x4232 |v4:13|)) ?x32)))
 (let (($x76 (and (<= (+ (+ ?x8654 |v3:14|) (* ?x9046 ?x4383)) ?x5786) (<= (+ (+ ?x8637 ?x3735) ?x4052) 7.0))))
 (let ((?x5810 (* ?x5967 |v4:13|)))
 (let ((?x5438 (+ (+ (+ (+ (* 18.0 ?x5470) (* ?x4592 |v1:16|)) (* ?x4232 ?x5470)) ?x1000) (* (- 9.0) ?x9214))))
 (let ((?x5033 (* ?x7878 ?x5828)))
 (let ((?x3609 (* 18.0 |v17:0|)))
 (let ((?x6959 (* 18.0 |v5:12|)))
 (let ((?x6977 (+ (+ (+ (+ (* 0.0 ?x5470) (* 11.0 |v17:0|)) (* 13.0 ?x5470)) ?x6959) ?x3609)))
 (let (($x3556 (and (<= (+ (+ ?x6977 ?x5033) ?x6162) ?x4232) (<= (+ (+ ?x5438 (* ?x9046 ?x9214)) ?x5810) 6.0))))
 (let ((?x2786 (+ (+ (+ (+ (* 16.0 |v5:12|) (* ?x5786 |v0:17|)) ?x1613) (* ?x7919 ?x5828)) (* 5.0 ?x5828))))
 (let ((?x6389 (* ?x7925 |v4:13|)))
 (let ((?x435 (* 9.0 ?x4383)))
 (let ((?x7299 (+ (+ (+ (+ (* 2.0 |v4:13|) (* 18.0 |v14:3|)) (* 13.0 |v14:3|)) ?x435) ?x6389)))
 (let (($x688 (or (<= (+ (+ ?x7299 ?x7670) ?x4292) ?x212) (<= (+ (+ ?x2786 (* 15.0 |v16:1|)) ?x577) 8.0))))
 (let ((?x2227 (* ?x1927 |v2:15|)))
 (let ((?x1452 (+ (+ (+ (+ (+ ?x6608 |v17:0|) ?x7662) (* 2.0 |v13:4|)) (* ?x3558 ?x9214)) ?x2227)))
 (let ((?x7387 (* 8.0 ?x3704)))
 (let ((?x4504 (+ (+ (+ (+ ?x4173 (* 6.0 |v17:0|)) (* ?x9046 |v13:4|)) (* 18.0 |v15:2|)) (* ?x2271 |v16:1|))))
 (let (($x4760 (and (and (<= (+ (+ ?x4504 ?x7387) ?x4008) ?x7919) (<= (+ ?x1452 ?x204) ?x7925)) $x688)))
 (let (($x8001 (or (or $x4760 (or $x3556 $x76)) (and (or $x6548 $x2423) (<= (+ (+ ?x4013 ?x7542) ?x8038) 4.0)))))
 (let ((?x9295 (* 15.0 |v1:16|)))
 (let ((?x4283 (* 20.0 |v13:4|)))
 (let ((?x5147 (+ (+ (+ (+ (* 4.0 ?x7358) ?x532) (* 3.0 ?x3704)) (* ?x4232 ?x7358)) ?x3216)))
 (let ((?x4789 (* 3.0 |v4:13|)))
 (let ((?x1249 (+ (+ (+ (+ (+ |v12:5| (* ?x5786 |v5:12|)) ?x3667) ?x8348) (* (- 9.0) |v12:5|)) (* 16.0 |v16:1|))))
 (let ((?x6699 (* 18.0 |v3:14|)))
 (let ((?x5040 (+ (+ (+ (* 6.0 ?x9214) (* ?x7878 |v3:14|)) (* 11.0 |v4:13|)) (* ?x2271 |v17:0|))))
 (let ((?x4870 (* 5.0 |v3:14|)))
 (let ((?x3000 (* ?x9046 |v0:17|)))
 (let ((?x5463 (* ?x2271 |v12:5|)))
 (let ((?x8607 (+ (+ (+ (+ (* ?x1927 ?x7358) (* ?x7878 |v5:12|)) (* ?x2271 ?x7358)) ?x5463) (* ?x212 ?x9214))))
 (let (($x4231 (or (<= (+ (+ ?x8607 ?x3000) ?x4870) ?x7919) (<= (+ (+ (+ ?x5040 ?x6699) (* ?x4592 ?x4383)) (* ?x3237 |v13:4|)) ?x4592))))
 (let (($x7318 (or $x4231 (and (<= (+ ?x1249 ?x4789) 8.0) (<= (+ (+ ?x5147 ?x4283) ?x9295) ?x2271)))))
 (let ((?x2070 (* ?x5786 ?x4383)))
 (let ((?x2930 (+ (+ (+ (+ ?x8014 (* 3.0 |v2:15|)) (* 7.0 ?x9214)) (* ?x5786 |v17:0|)) ?x2070)))
 (let ((?x454 (* ?x2249 |v4:13|)))
 (let ((?x5830 (* 16.0 |v0:17|)))
 (let ((?x6293 (+ (+ (+ (+ ?x5463 (* 6.0 ?x9214)) (* ?x4592 |v14:3|)) (* 3.0 ?x4383)) (* (- 6.0) |v17:0|))))
 (let (($x1727 (or (<= (+ (+ ?x6293 ?x5830) ?x454) 16.0) (<= (+ (+ ?x2930 ?x5033) (* 9.0 ?x5828)) ?x7878))))
 (let ((?x2048 (* ?x7919 |v2:15|)))
 (let ((?x1098 (* 5.0 ?x4383)))
 (let ((?x1699 (+ (+ (+ (+ (+ (* ?x2249 ?x5828) (* 20.0 ?x7358)) ?x766) ?x2070) ?x1098) ?x2048)))
 (let ((?x5039 (+ (+ (+ (+ (* 15.0 |v2:15|) (* ?x3558 |v0:17|)) (* ?x1927 |v15:2|)) ?x826) (* 11.0 |v13:4|))))
 (let (($x782 (or (<= (+ (+ ?x5039 (* ?x9308 |v12:5|)) ?x3474) 14.0) (<= (+ ?x1699 |v12:5|) 10.0))))
 (let ((?x795 (* ?x4232 ?x9214)))
 (let ((?x5752 (* 9.0 ?x3704)))
 (let ((?x4997 (+ (+ (+ (+ (* 15.0 |v17:0|) ?x6416) (* 5.0 |v2:15|)) (* 9.0 |v14:3|)) ?x5752)))
 (let ((?x554 (* 3.0 |v15:2|)))
 (let ((?x2339 (+ (+ (+ (+ (* 17.0 |v14:3|) (* 2.0 |v3:14|)) ?x6162) (* ?x1927 |v15:2|)) ?x554)))
 (let ((?x5645 (* ?x212 |v5:12|)))
 (let ((?x3944 (* 16.0 |v3:14|)))
 (let ((?x6593 (+ (+ (+ (+ (* 8.0 ?x9214) (* ?x9308 |v0:17|)) (* ?x5786 |v15:2|)) ?x3944) ?x2048)))
 (let (($x8355 (and (<= (+ (+ ?x6593 ?x532) ?x5645) 18.0) (<= (+ (+ ?x2339 (* ?x7925 ?x5828)) (* ?x212 |v14:3|)) 15.0))))
 (let ((?x6031 (* 13.0 |v5:12|)))
 (let ((?x3501 (* 2.0 |v0:17|)))
 (let ((?x3901 (+ (+ (+ (+ ?x7387 (* ?x212 ?x7358)) (* 2.0 ?x5470)) (* 19.0 |v4:13|)) ?x3501)))
 (let ((?x7876 (- 9.0)))
 (let ((?x1749 (* 18.0 ?x4383)))
 (let ((?x493 (* 12.0 |v5:12|)))
 (let ((?x3491 (+ (+ (+ (+ (+ ?x6555 (* 19.0 |v17:0|)) ?x7965) (* ?x2249 |v16:1|)) ?x493) ?x1749)))
 (let ((?x6352 (* ?x7122 |v2:15|)))
 (let ((?x5430 (+ (+ (+ (+ (+ ?x364 ?x364) (* 9.0 |v12:5|)) (* ?x2271 ?x3704)) ?x248) ?x6352)))
 (let ((?x7568 (* ?x2249 |v5:12|)))
 (let ((?x3301 (* 18.0 |v0:17|)))
 (let ((?x3030 (* ?x4592 |v14:3|)))
 (let ((?x6546 (+ (+ (+ (+ (* ?x4232 |v2:15|) (* ?x7876 |v3:14|)) (* ?x5967 ?x5828)) ?x3030) ?x3301)))
 (let (($x6703 (or (<= (+ (+ ?x6546 ?x7568) (* 0.0 ?x5828)) ?x1927) (<= (+ ?x5430 ?x4391) 14.0))))
 (let (($x2526 (and $x6703 (and (<= (+ ?x3491 ?x2494) ?x7876) (<= (+ (+ ?x3901 ?x6031) ?x248) ?x3558)))))
 (let (($x2124 (or (and $x2526 (or $x8355 (<= (+ (+ ?x4997 ?x914) ?x795) 16.0))) (and (or $x782 $x1727) $x7318))))
 (let ((?x4512 (* ?x9308 |v0:17|)))
 (let ((?x1104 (+ (+ (+ (* ?x7919 |v5:12|) (* ?x3684 |v16:1|)) (* ?x3558 ?x3704)) (* ?x7876 ?x5470))))
 (let ((?x7130 (* ?x7919 |v4:13|)))
 (let ((?x7905 (+ (+ (+ (* 0.0 |v14:3|) (* ?x3558 ?x3704)) (* 10.0 |v14:3|)) (* ?x7878 |v15:2|))))
 (let (($x5614 (or (<= (+ (+ (+ ?x7905 ?x1803) ?x7832) ?x7130) ?x1687) (<= (+ (+ (+ ?x1104 ?x3909) (* ?x7925 ?x4383)) ?x4512) 1.0))))
 (let ((?x1470 (* 18.0 |v15:2|)))
 (let ((?x1837 (+ (+ (+ (+ (+ |v3:14| ?x826) (* 11.0 |v0:17|)) ?x5161) (* ?x9046 |v15:2|)) ?x1470)))
 (let ((?x4521 (+ (+ (+ (+ (+ (* 12.0 |v1:16|) ?x6005) ?x7358) (* 13.0 |v0:17|)) ?x1000) ?x8790)))
 (let (($x8076 (or (and (<= (+ ?x4521 (* 9.0 |v13:4|)) 1.0) (<= (+ ?x1837 ?x3735) ?x1927)) $x5614)))
 (let ((?x4522 (* ?x7876 |v4:13|)))
 (let ((?x5947 (* 5.0 |v0:17|)))
 (let ((?x728 (* ?x7876 |v2:15|)))
 (let ((?x4884 (+ (+ (+ (+ (* 14.0 |v12:5|) (* ?x7876 ?x7358)) (* ?x9046 |v5:12|)) ?x728) ?x6141)))
 (let ((?x7091 (- 6.0)))
 (let ((?x2834 (* ?x7876 ?x7358)))
 (let ((?x9113 (* 15.0 |v3:14|)))
 (let ((?x2459 (+ (+ (+ (+ ?x6409 (* 11.0 |v0:17|)) (* 8.0 |v16:1|)) (* 19.0 |v17:0|)) ?x8164)))
 (let (($x6851 (or (<= (+ (+ ?x2459 ?x9113) ?x2834) ?x7091) (<= (+ (+ ?x4884 ?x5947) ?x4522) 20.0))))
 (let ((?x956 (* ?x1687 |v17:0|)))
 (let ((?x9013 (+ (+ (+ (+ ?x1000 (* ?x4232 ?x5470)) (* ?x9046 |v2:15|)) (* 18.0 ?x7358)) ?x2222)))
 (let ((?x905 (* 11.0 |v17:0|)))
 (let ((?x2357 (* 18.0 |v2:15|)))
 (let ((?x1473 (+ (+ (+ (+ (* ?x7876 |v0:17|) (* 3.0 |v14:3|)) (* ?x5786 ?x5828)) ?x2881) ?x2357)))
 (let (($x2839 (and (<= (+ (+ ?x1473 ?x1233) ?x905) ?x3237) (<= (+ (+ ?x9013 ?x956) ?x7618) ?x7091))))
 (let ((?x1755 (* 14.0 ?x4383)))
 (let ((?x6182 (* ?x3237 |v0:17|)))
 (let ((?x7910 (+ (+ (+ (+ (* ?x212 |v16:1|) (* 9.0 |v12:5|)) (* ?x7919 |v3:14|)) ?x6182) ?x5470)))
 (let ((?x2263 (* ?x212 |v4:13|)))
 (let ((?x2686 (* 15.0 ?x3704)))
 (let ((?x8638 (+ (+ (+ (+ (* ?x1927 ?x4383) (* ?x3237 |v14:3|)) (* 4.0 |v17:0|)) ?x2686) (* ?x7091 |v14:3|))))
 (let (($x8946 (and (<= (+ (+ ?x8638 ?x2263) (* 2.0 ?x4383)) ?x7925) (<= (+ (+ ?x7910 ?x1755) ?x5263) 6.0))))
 (let ((?x7248 (* 9.0 |v5:12|)))
 (let ((?x8011 (+ (+ (+ (* 10.0 |v15:2|) (* 12.0 |v17:0|)) (* ?x1927 |v15:2|)) (* 0.0 |v12:5|))))
 (let ((?x4037 (+ (+ (+ (+ (+ (+ ?x6250 ?x3017) ?x4851) ?x7832) (* 5.0 |v16:1|)) ?x3589) (* ?x9046 ?x5828))))
 (let (($x322 (and (<= ?x4037 16.0) (<= (+ (+ (+ ?x8011 ?x493) ?x7248) (* 20.0 |v14:3|)) 3.0))))
 (let ((?x6881 (* 15.0 |v4:13|)))
 (let ((?x3972 (* 17.0 |v16:1|)))
 (let ((?x2430 (* 7.0 |v13:4|)))
 (let ((?x4878 (+ (+ (+ (+ (+ ?x2263 (* 19.0 ?x9214)) (* 10.0 |v14:3|)) |v5:12|) ?x2430) ?x3972)))
 (let (($x84 (and (or (<= (+ ?x4878 ?x6881) 10.0) (and $x322 $x8946)) (or (or $x2839 $x6851) $x8076))))
 (let (($x2268 (and (and (and $x84 $x2124) (or $x8001 $x3102)) (or (<= (+ (+ ?x467 ?x3474) ?x6543) ?x1927) $x3682))))
 (let (($x4184 (not (= |v6:11_st| (RMk1 val!10025)))))
 (let (($x3947 (not (= |v7:10_st| (RMk1 val!10024)))))
 (let (($x3746 (not (= |v8:9_st| (RMk1 val!10023)))))
 (let (($x3505 (not (= |v9:8_st| (RMk1 val!10022)))))
 (let (($x1202 (not (= |v10:7_st| (RMk1 val!10021)))))
 (let (($x2351 (not (= |v11:6_st| (RMk1 val!10020)))))
 (and $x2351 $x1202 $x3505 $x3746 $x3947 $x4184 $x2268))))))))))))))))))))))))))))))))))))))))))))))))))))))))))))))))))))))))))))))))))))))))))))))))))))))))))))))))))))))))))))))))))))))))))))))))))))))))))))))))))))))))))))))))))))))))))))))))))))))))))))))))))))))))))))))))))))))))))))))))))))))))))))))))))))))))))))))))))))))))))))))))))))))))))))))))))))))))))))))))))
 )
 )
 )
 )
 )
 )
 )
 )
 )
 )
 )
 )
 )
 )
 )
 )
 )
 )
(check-sat)
